20160822 90 0 0 0
20150731 80 0 0 0
20140718 80 0 0 0
20130617 100 0 0 0
20120531 50 3000 0 0
20111014 120 0 0 0
20100706 100 0 0 0
20090608 80 0 0 0
20080602 100 0 0 0
20070620 50 0 0 0
20051123 0 3500 0 0
20050624 100 0 0 0
20040531 120 0 0 0
20030529 100 0 0 0
20020606 150 0 0 0
20010608 160 0 0 0
